c description: Tseitin formula on , with odd charge
c generator: CNFgen (0.9.0)
c copyright: (C) 2012-2020 Massimo Lauria <massimo.lauria@uniroma1.it>
c url: https://massimolauria.net/cnfgen
c
p cnf 20 103
1 2 3 0
1 -2 -3 0
-1 2 -3 0
-1 -2 3 0
-4 0
-5 0
6 -7 0
-6 7 0
8 9 10 -11 0
8 9 -10 11 0
8 -9 10 11 0
8 -9 -10 -11 0
-8 9 10 11 0
-8 9 -10 -11 0
-8 -9 10 -11 0
-8 -9 -10 11 0
1 4 -12 0
1 -4 12 0
-1 4 12 0
-1 -4 -12 0
8 -13 0
-8 13 0
2 9 12 14 15 16 -17 0
2 9 12 14 15 -16 17 0
2 9 12 14 -15 16 17 0
2 9 12 14 -15 -16 -17 0
2 9 12 -14 15 16 17 0
2 9 12 -14 15 -16 -17 0
2 9 12 -14 -15 16 -17 0
2 9 12 -14 -15 -16 17 0
2 9 -12 14 15 16 17 0
2 9 -12 14 15 -16 -17 0
2 9 -12 14 -15 16 -17 0
2 9 -12 14 -15 -16 17 0
2 9 -12 -14 15 16 -17 0
2 9 -12 -14 15 -16 17 0
2 9 -12 -14 -15 16 17 0
2 9 -12 -14 -15 -16 -17 0
2 -9 12 14 15 16 17 0
2 -9 12 14 15 -16 -17 0
2 -9 12 14 -15 16 -17 0
2 -9 12 14 -15 -16 17 0
2 -9 12 -14 15 16 -17 0
2 -9 12 -14 15 -16 17 0
2 -9 12 -14 -15 16 17 0
2 -9 12 -14 -15 -16 -17 0
2 -9 -12 14 15 16 -17 0
2 -9 -12 14 15 -16 17 0
2 -9 -12 14 -15 16 17 0
2 -9 -12 14 -15 -16 -17 0
2 -9 -12 -14 15 16 17 0
2 -9 -12 -14 15 -16 -17 0
2 -9 -12 -14 -15 16 -17 0
2 -9 -12 -14 -15 -16 17 0
-2 9 12 14 15 16 17 0
-2 9 12 14 15 -16 -17 0
-2 9 12 14 -15 16 -17 0
-2 9 12 14 -15 -16 17 0
-2 9 12 -14 15 16 -17 0
-2 9 12 -14 15 -16 17 0
-2 9 12 -14 -15 16 17 0
-2 9 12 -14 -15 -16 -17 0
-2 9 -12 14 15 16 -17 0
-2 9 -12 14 15 -16 17 0
-2 9 -12 14 -15 16 17 0
-2 9 -12 14 -15 -16 -17 0
-2 9 -12 -14 15 16 17 0
-2 9 -12 -14 15 -16 -17 0
-2 9 -12 -14 -15 16 -17 0
-2 9 -12 -14 -15 -16 17 0
-2 -9 12 14 15 16 -17 0
-2 -9 12 14 15 -16 17 0
-2 -9 12 14 -15 16 17 0
-2 -9 12 14 -15 -16 -17 0
-2 -9 12 -14 15 16 17 0
-2 -9 12 -14 15 -16 -17 0
-2 -9 12 -14 -15 16 -17 0
-2 -9 12 -14 -15 -16 17 0
-2 -9 -12 14 15 16 17 0
-2 -9 -12 14 15 -16 -17 0
-2 -9 -12 14 -15 16 -17 0
-2 -9 -12 14 -15 -16 17 0
-2 -9 -12 -14 15 16 -17 0
-2 -9 -12 -14 15 -16 17 0
-2 -9 -12 -14 -15 16 17 0
-2 -9 -12 -14 -15 -16 -17 0
-10 0
-13 0
5 -14 0
-5 14 0
-11 0
15 -18 0
-15 18 0
6 -19 0
-6 19 0
16 -19 0
-16 19 0
3 -7 0
-3 7 0
18 -20 0
-18 20 0
17 -20 0
-17 20 0